(set-logic QF_NIA)
(set-info :source |
    Sequential equivalence checking.
    Calypto Design Systems, Inc. <www.calypto.com>
  |)
(set-info :smt-lib-version 2.0)
(set-info :category "industrial")
(set-info :status sat)
(declare-fun P_2 () Int)
(declare-fun P_3 () Bool)
(declare-fun P_4 () Bool)
(declare-fun P_5 () Int)
(declare-fun P_6 () Int)
(declare-fun P_7 () Bool)
(declare-fun P_8 () Bool)
(declare-fun P_9 () Int)
(assert (<= (* 8 (- 1)) P_2))
(assert (<= P_2 7))
(assert (<= (* 2 (- 1)) P_5))
(assert (<= P_5 1))
(assert (<= (* 8 (- 1)) P_6))
(assert (<= P_6 7))
(assert (<= (* 2 (- 1)) P_9))
(assert (<= P_9 1))
(declare-fun dz () Int)
(declare-fun rz () Int)
(assert (let ((?v_0 (< P_2 0)) (?v_1 (< P_6 0))) (let ((?v_2 (* (ite (not (or (and (not ?v_0) P_3) (and ?v_0 P_4))) (* P_5 16) 0) (ite (not (or (and (not ?v_1) P_7) (and ?v_1 P_8))) (* P_9 16) 0)))) (= (+ (* 4294967296 dz) rz) (- ?v_2 (ite (>= ?v_2 0) ?v_2 (+ ?v_2 4096)))))))
(assert (> rz 0))
(assert (< rz 4294967296))
(check-sat)
(exit)
